59
120
84	3
83	2
81	1
80	2
79	3
77	1
76	1
75	5
74	2
72	2
71	1
70	1
69	1
68	2
67	1
66	1
65	2
64	1
63	2
62	1
61	1
60	3
59	2
58	1
57	1
56	2
54	1
53	2
52	3
50	3
48	1
47	1
46	2
45	1
43	2
41	1
40	1
39	1
38	1
37	1
36	3
33	1
32	1
31	1
30	2
28	1
26	1
25	1
24	2
23	1
20	3
19	2
18	1
17	3
16	3
15	1
14	2
13	1
12	4
